 vasp.5.4.1 05Feb16 (build Oct 24 2016 11:17:14) complex

 executed on v541-ifort1404-ompi- date 2017.07.27  15:23:34

 INCAR:
 POTCAR:   PAW_PBE Al 04Jan2001

 POTCAR:   PAW_PBE Al 04Jan2001
   VRHFIN =Al: s2p1

   TITEL  = PAW_PBE Al 04Jan2001
   POMASS =   26.982; ZVAL   =    3.000    mass and valenz
   ENMAX  =  240.300; ENMIN  =  180.225 eV
   QCUT   =   -4.203; QGAM   =    8.405    optimization parameters

   Description
     l     E      TYP  RCUT    TYP  RCUT
     0   .000     23  1.900
     0   .000     23  1.900
     1   .000     23  1.900
     1  1.000     23  1.900
     2   .000      7  1.900

 PAW_PBE Al 04Jan2001                   :

 POSCAR: Al
  positions in direct lattice
 exchange correlation table for  LEXCH =        8
   RHO(1)=    0.500       N(1)  =     2000
   RHO(2)=  100.500       N(2)  =     4000

 ion  position               nearest neighbor table
   1  0.000  0.000  0.000-   2 2.86   3 2.86   4 2.86   2 2.86   3 2.86   2 2.86   4 2.86   2 2.86
                             3 2.86   4 2.86   3 2.86   4 2.86
   2  0.000  0.500  0.500-   1 2.86   3 2.86   4 2.86   1 2.86   4 2.86   1 2.86   3 2.86   1 2.86
                             3 2.86   4 2.86   4 2.86   3 2.86
   3  0.500  0.000  0.500-   1 2.86   2 2.86   4 2.86   1 2.86   4 2.86   2 2.86   4 2.86   4 2.86
                             1 2.86   2 2.86   1 2.86   2 2.86
   4  0.500  0.500  0.000-   1 2.86   2 2.86   3 2.86   2 2.86   3 2.86   1 2.86   3 2.86   3 2.86
                             1 2.86   2 2.86   2 2.86   1 2.86

  LATTYP: Found a simple cubic cell.
 ALAT       =     4.0500001907

  Lattice vectors:

 A1 = (   4.0500001907,   0.0000000000,   0.0000000000)
 A2 = (   0.0000000000,   4.0500001907,   0.0000000000)
 A3 = (   0.0000000000,   0.0000000000,   4.0500001907)

Analysis of symmetry for initial positions (statically):
 Subroutine PRICEL returns following result:

  LATTYP: Found a face centered cubic cell.
 ALAT       =     4.0500001907

[...]

   4 primitive cells build up your supercell.

 Routine SETGRP: Setting up the symmetry group for a
 simple cubic supercell.

 Subroutine GETGRP returns: Found 48 space group operations
 (whereof 48 operations were pure point group operations)
 out of a pool of 48 trial point group operations.

The static configuration has the point symmetry O_h .

Analysis of symmetry for dynamics (positions and initial velocities):
 Subroutine PRICEL returns following result:

[...]

The dynamic configuration has the point symmetry O_h .

 Subroutine INISYM returns: Found 48 space group operations
 (whereof 48 operations are pure point group operations),
 and found     4 'primitive' translations

 KPOINTS: Automatic mesh

Automatic generation of k-mesh.
 generate k-points for:    9    9    9
Space group operators:
 irot       det(A)        alpha          n_x          n_y          n_z        tau_x        tau_y        tau_z
    1     1.000000     0.000000     1.000000     0.000000     0.000000     0.000000     0.000000     0.000000
    2    -1.000000     0.000000     1.000000     0.000000     0.000000     0.000000     0.000000     0.000000
    3     1.000000   120.000000    -0.577350    -0.577350    -0.577350     0.000000     0.000000     0.000000
    4    -1.000000   120.000000    -0.577350    -0.577350    -0.577350     0.000000     0.000000     0.000000
    5     1.000000   120.000000     0.577350     0.577350     0.577350     0.000000     0.000000     0.000000
    6    -1.000000   120.000000     0.577350     0.577350     0.577350     0.000000     0.000000     0.000000
    7     1.000000    90.000000     0.000000     0.000000    -1.000000     0.000000     0.000000     0.000000
    8    -1.000000    90.000000     0.000000     0.000000    -1.000000     0.000000     0.000000     0.000000
    9     1.000000   180.000000     0.000000     0.707107     0.707107     0.000000     0.000000     0.000000
   10    -1.000000   180.000000     0.000000     0.707107     0.707107     0.000000     0.000000     0.000000
   11     1.000000    90.000000     0.000000     1.000000     0.000000     0.000000     0.000000     0.000000
   12    -1.000000    90.000000     0.000000     1.000000     0.000000     0.000000     0.000000     0.000000
   13     1.000000   179.999999     0.000000     0.000000     1.000000     0.000000     0.000000     0.000000
   14    -1.000000   179.999999     0.000000     0.000000     1.000000     0.000000     0.000000     0.000000
   15     1.000000   120.000000    -0.577350     0.577350     0.577350     0.000000     0.000000     0.000000
   16    -1.000000   120.000000    -0.577350     0.577350     0.577350     0.000000     0.000000     0.000000
   17     1.000000   120.000000    -0.577350     0.577350    -0.577350     0.000000     0.000000     0.000000
   18    -1.000000   120.000000    -0.577350     0.577350    -0.577350     0.000000     0.000000     0.000000
   19     1.000000    90.000000     0.000000     0.000000     1.000000     0.000000     0.000000     0.000000
   20    -1.000000    90.000000     0.000000     0.000000     1.000000     0.000000     0.000000     0.000000
   21     1.000000    90.000000    -1.000000     0.000000     0.000000     0.000000     0.000000     0.000000
   22    -1.000000    90.000000    -1.000000     0.000000     0.000000     0.000000     0.000000     0.000000
   23     1.000000   180.000000     0.707107     0.000000     0.707107     0.000000     0.000000     0.000000
   24    -1.000000   180.000000     0.707107     0.000000     0.707107     0.000000     0.000000     0.000000
   25     1.000000   120.000000     0.577350    -0.577350     0.577350     0.000000     0.000000     0.000000
   26    -1.000000   120.000000     0.577350    -0.577350     0.577350     0.000000     0.000000     0.000000
   27     1.000000   120.000000    -0.577350    -0.577350     0.577350     0.000000     0.000000     0.000000
   28    -1.000000   120.000000    -0.577350    -0.577350     0.577350     0.000000     0.000000     0.000000
   29     1.000000   180.000000     1.000000     0.000000     0.000000     0.000000     0.000000     0.000000
   30    -1.000000   180.000000     1.000000     0.000000     0.000000     0.000000     0.000000     0.000000
   31     1.000000    90.000000     0.000000    -1.000000     0.000000     0.000000     0.000000     0.000000
   32    -1.000000    90.000000     0.000000    -1.000000     0.000000     0.000000     0.000000     0.000000
   33     1.000000   180.000000     0.707107     0.707107     0.000000     0.000000     0.000000     0.000000
   34    -1.000000   180.000000     0.707107     0.707107     0.000000     0.000000     0.000000     0.000000
   35     1.000000    90.000000     1.000000     0.000000     0.000000     0.000000     0.000000     0.000000
   36    -1.000000    90.000000     1.000000     0.000000     0.000000     0.000000     0.000000     0.000000
   37     1.000000   120.000000     0.577350    -0.577350    -0.577350     0.000000     0.000000     0.000000
   38    -1.000000   120.000000     0.577350    -0.577350    -0.577350     0.000000     0.000000     0.000000
   39     1.000000   180.000000     0.000000     1.000000     0.000000     0.000000     0.000000     0.000000
   40    -1.000000   180.000000     0.000000     1.000000     0.000000     0.000000     0.000000     0.000000
   41     1.000000   120.000000     0.577350     0.577350    -0.577350     0.000000     0.000000     0.000000
   42    -1.000000   120.000000     0.577350     0.577350    -0.577350     0.000000     0.000000     0.000000
   43     1.000000   180.000000     0.000000    -0.707107     0.707107     0.000000     0.000000     0.000000
   44    -1.000000   180.000000     0.000000    -0.707107     0.707107     0.000000     0.000000     0.000000
   45     1.000000   180.000000     0.707107    -0.707107     0.000000     0.000000     0.000000     0.000000
   46    -1.000000   180.000000     0.707107    -0.707107     0.000000     0.000000     0.000000     0.000000
   47     1.000000   180.000000     0.707107     0.000000    -0.707107     0.000000     0.000000     0.000000
   48    -1.000000   180.000000     0.707107     0.000000    -0.707107     0.000000     0.000000     0.000000

 Subroutine IBZKPT returns following result:

 Found     35 irreducible k-points:

 Following reciprocal coordinates:
            Coordinates               Weight
  0.000000  0.000000  0.000000      1.000000
  0.111111  0.000000  0.000000      6.000000
  0.222222  0.000000  0.000000      6.000000
  0.333333  0.000000  0.000000      6.000000
  0.444444  0.000000  0.000000      6.000000
  0.111111  0.111111  0.000000     12.000000
  0.222222  0.111111  0.000000     24.000000
  0.333333  0.111111  0.000000     24.000000
  0.444444  0.111111  0.000000     24.000000
  0.222222  0.222222  0.000000     12.000000
  0.333333  0.222222  0.000000     24.000000
  0.444444  0.222222  0.000000     24.000000
  0.333333  0.333333  0.000000     12.000000
  0.444444  0.333333  0.000000     24.000000
  0.444444  0.444444  0.000000     12.000000
  0.111111  0.111111  0.111111      8.000000
  0.222222  0.111111  0.111111     24.000000
  0.333333  0.111111  0.111111     24.000000
  0.444444  0.111111  0.111111     24.000000
  0.222222  0.222222  0.111111     24.000000
  0.333333  0.222222  0.111111     48.000000
  0.444444  0.222222  0.111111     48.000000
  0.333333  0.333333  0.111111     24.000000
  0.444444  0.333333  0.111111     48.000000
  0.444444  0.444444  0.111111     24.000000
  0.222222  0.222222  0.222222      8.000000
  0.333333  0.222222  0.222222     24.000000
  0.444444  0.222222  0.222222     24.000000
  0.333333  0.333333  0.222222     24.000000
  0.444444  0.333333  0.222222     48.000000
  0.444444  0.444444  0.222222     24.000000
  0.333333  0.333333  0.333333      8.000000
  0.444444  0.333333  0.333333     24.000000
  0.444444  0.444444  0.333333     24.000000
  0.444444  0.444444  0.444444      8.000000

 Following cartesian coordinates:
            Coordinates               Weight
  0.000000  0.000000  0.000000      1.000000
  0.027435  0.000000  0.000000      6.000000
  0.054870  0.000000  0.000000      6.000000
  0.082305  0.000000  0.000000      6.000000
  0.109739  0.000000  0.000000      6.000000
  0.027435  0.027435  0.000000     12.000000
  0.054870  0.027435  0.000000     24.000000
  0.082305  0.027435  0.000000     24.000000
  0.109739  0.027435  0.000000     24.000000
  0.054870  0.054870  0.000000     12.000000
  0.082305  0.054870  0.000000     24.000000
  0.109739  0.054870  0.000000     24.000000
  0.082305  0.082305  0.000000     12.000000
  0.109739  0.082305  0.000000     24.000000
  0.109739  0.109739  0.000000     12.000000
  0.027435  0.027435  0.027435      8.000000
  0.054870  0.027435  0.027435     24.000000
  0.082305  0.027435  0.027435     24.000000
  0.109739  0.027435  0.027435     24.000000
  0.054870  0.054870  0.027435     24.000000
  0.082305  0.054870  0.027435     48.000000
  0.109739  0.054870  0.027435     48.000000
  0.082305  0.082305  0.027435     24.000000
  0.109739  0.082305  0.027435     48.000000
  0.109739  0.109739  0.027435     24.000000
  0.054870  0.054870  0.054870      8.000000
[...]
   -.470E+00 -.171E-14 0.115E-07   0.368E+00 -.662E-16 -.320E-16   0.166E+00 -.434E-18 -.542E-19   -.542E-03 0.640E-16 -.128E-09
   -.111E+00 -.355E-14 -.180E-14   0.131E+00 -.178E-15 -.108E-16   -.954E-02 0.217E-18 -.407E-19   -.135E-03 -.736E-16 0.188E-10
   0.291E+00 -.113E-14 -.315E-13   -.249E+00 -.543E-15 0.275E-15   -.784E-01 0.000E+00 0.000E+00   0.352E-03 0.696E-16 0.399E-10
   0.291E+00 -.318E-16 0.637E-14   -.249E+00 0.925E-15 -.266E-15   -.784E-01 0.000E+00 0.108E-18   0.352E-03 -.663E-16 0.347E-11
   0.163E-03 -.643E-14 0.115E-07   -.833E-16 0.137E-15 -.338E-16   -.222E-03 -.217E-18 0.136E-19   0.269E-04 -.634E-17 -.660E-10

 POSITION                                       TOTAL-FORCE (eV/Angst)
     -0.01500      0.00000      0.00000         0.063197     -0.000000      0.000000
      0.00000      2.02500      2.02500         0.010079     -0.000000     -0.000000
      2.02500      0.00000      2.02500        -0.036638     -0.000000     -0.000000
      2.02500      2.02500      0.00000        -0.036638      0.000000     -0.000000
    total drift:                               -0.000032     -0.000000      0.000000

  FREE ENERGIE OF THE ION-ELECTRON SYSTEM (eV)
  free  energy   TOTEN  =       -15.07909145 eV

  energy  without entropy=      -14.85606225  energy(sigma->0) =      -14.96757685

 d Force =-0.3553188E-05[-0.190E-02, 0.189E-02]  d Energy = 0.1110417E-06-0.366E-05
 d Force = 0.1734723E-17[-0.110E-01, 0.110E-01]  d Ewald  =-0.5684342E-13 0.568E-13

 Finite differences progress:
  Degree of freedom:   7/  7
  Displacement:        2/  2
  Total:              14/ 14

  ELASTIC MODULI  (kBar)
 Direction    XX          YY          ZZ          XY          YZ          ZX
 XX         905.6320    690.2095    690.2095      0.0000      0.0000      0.0000
 YY         690.9785    906.0250    690.9785      0.0000      0.0000      0.0000
 ZZ         690.9609    690.9609    906.0028      0.0000      0.0000      0.0000
 XY          -0.1617     -0.2626     -0.3661    336.1839      0.0000      0.0000
 YZ          -0.2679     -0.0176     -0.1361      0.0000    337.4499      0.0000
 ZX          -0.1369     -0.2687     -0.0231      0.0000      0.0000    336.9917

  SYMMETRIZED ELASTIC MODULI (kBar)
 Direction    XX          YY          ZZ          XY          YZ          ZX
 XX         905.8866    690.7163    690.7163     -0.0000      0.0000      0.0000
 YY         690.7163    905.8866    690.7163      0.0000     -0.0000     -0.0000
 ZZ         690.7163    690.7163    905.8866      0.0000      0.0000      0.0000
 XY          -0.0000      0.0000      0.0000    336.8752      0.0000      0.0000
 YZ           0.0000     -0.0000      0.0000      0.0000    336.8752      0.0000
 ZX           0.0000     -0.0000      0.0000      0.0000      0.0000    336.8752

 INTERNAL STRAIN TENSORS FROM STRAINED CELLS

 INTERNAL STRAIN TENSOR FOR ION    1 for displacements in x,y,z  (eV/Angst):
          X           Y           Z          XY          YZ          ZX
  x    -0.00000     0.00000    -0.00000     0.00000    -0.00000     0.00000
  y    -0.00000     0.00000     0.00000     0.00000     0.00000    -0.00000
  z     0.00000     0.00000    -0.00000     0.00000    -0.00000    -0.00000

[...]

 INTERNAL STRAIN TENSORS FROM DISPLACED ATOMS

[...]

 INTERNAL STRAIN TENSOR FOR ION    4 for displacements in x,y,z  (eV/Angst):
          X           Y           Z          XY          YZ          ZX
  x    -0.00000     0.00000     0.00000     0.00000     0.00000     0.00000
  y     0.00000    -0.00000     0.00000     0.00000     0.00000     0.00000
  z     0.00000     0.00000    -0.00000     0.00000     0.00000     0.00000

 Eigenvectors and eigenvalues of the dynamical matrix

   1 f  =    9.400569 THz    59.065520 2PiTHz  313.569234 cm-1    38.877644 meV
             X         Y         Z           dx          dy          dz
      0.000000  0.000000  0.000000    -0.492084   -0.088616    0.000000
      0.000000  2.025000  2.025000    -0.492084    0.088616   -0.000000
      2.025000  0.000000  2.025000     0.492084   -0.088616    0.000000
      2.025000  2.025000  0.000000     0.492084    0.088616    0.000000

[...]

   9 f  =    5.656485 THz    35.540746 2PiTHz  188.680036 cm-1    23.393351 meV
             X         Y         Z           dx          dy          dz
      0.000000  0.000000  0.000000     0.133011   -0.676251   -0.060430
      0.000000  2.025000  2.025000    -0.133011   -0.102791    0.100163
      2.025000  0.000000  2.025000     0.027252    0.676251   -0.100163
      2.025000  2.025000  0.000000    -0.027252    0.102791    0.060430

  10 f/i=    0.000001 THz     0.000003 2PiTHz    0.000018 cm-1     0.000002 meV
             X         Y         Z           dx          dy          dz
      0.000000  0.000000  0.000000    -0.019945   -0.050699   -0.497023
      0.000000  2.025000  2.025000    -0.019945   -0.050699   -0.497023
      2.025000  0.000000  2.025000    -0.019945   -0.050699   -0.497023
      2.025000  2.025000  0.000000    -0.019945   -0.050699   -0.497023

[...]

  12 f/i=    0.000001 THz     0.000004 2PiTHz    0.000019 cm-1     0.000002 meV
             X         Y         Z           dx          dy          dz
      0.000000  0.000000  0.000000    -0.121719   -0.481937    0.054044
      0.000000  2.025000  2.025000    -0.121719   -0.481937    0.054044
      2.025000  0.000000  2.025000    -0.121719   -0.481937    0.054044
      2.025000  2.025000  0.000000    -0.121719   -0.481937    0.054044

 ELASTIC MODULI CONTR FROM IONIC RELAXATION (kBar)
 Direction    XX          YY          ZZ          XY          YZ          ZX
 XX          -0.0000     -0.0000      0.0000     -0.0000     -0.0000      0.0000
 YY          -0.0000     -0.0000     -0.0000     -0.0000     -0.0000     -0.0000
 ZZ          -0.0000     -0.0000     -0.0000     -0.0000      0.0000     -0.0000
 XY          -0.0000     -0.0000      0.0000     -0.0000      0.0000     -0.0000
 YZ          -0.0000     -0.0000      0.0000      0.0000     -0.0000     -0.0000
 ZX          -0.0000     -0.0000     -0.0000     -0.0000     -0.0000     -0.0000

 TOTAL ELASTIC MODULI (kBar)
 Direction    XX          YY          ZZ          XY          YZ          ZX
 XX         905.8866    690.7163    690.7163     -0.0000      0.0000      0.0000
 YY         690.7163    905.8866    690.7163      0.0000     -0.0000     -0.0000
 ZZ         690.7163    690.7163    905.8866      0.0000      0.0000     -0.0000
 XY          -0.0000      0.0000      0.0000    336.8752      0.0000     -0.0000
 YZ           0.0000     -0.0000      0.0000      0.0000    336.8752     -0.0000
 ZX           0.0000     -0.0000     -0.0000     -0.0000     -0.0000    336.8752

  LATTYP: Found a simple cubic cell.
 ALAT       =     4.0500001907

[...]

Analysis of symmetry for initial positions (statically):
 Subroutine PRICEL returns following result:

[...]

The static configuration has the point symmetry O_h .

Analysis of symmetry for dynamics (positions and initial velocities):
 Subroutine PRICEL returns following result:

  LATTYP: Found a face centered cubic cell.
 ALAT       =     4.0500001907

  Lattice vectors:

 A1 = (   2.0250000953,   2.0250000953,   0.0000000000)
 A2 = (   2.0250000953,   0.0000000000,  -2.0250000953)
 A3 = (   0.0000000000,   2.0250000953,  -2.0250000953)

   4 primitive cells build up your supercell.

 Routine SETGRP: Setting up the symmetry group for a
 simple cubic supercell.

 Subroutine GETGRP returns: Found 48 space group operations
 (whereof 48 operations were pure point group operations)
 out of a pool of 48 trial point group operations.

The dynamic configuration has the point symmetry O_h .

 Subroutine INISYM returns: Found 48 space group operations
 (whereof 48 operations are pure point group operations),
 and found     4 'primitive' translations

 KPOINTS: Automatic mesh

Automatic generation of k-mesh.
 generate k-points for:    9    9    9
Space group operators:
 irot       det(A)        alpha          n_x          n_y          n_z        tau_x        tau_y        tau_z
    1     1.000000     0.000000     1.000000     0.000000     0.000000     0.000000     0.000000     0.000000
    2    -1.000000     0.000000     1.000000     0.000000     0.000000     0.000000     0.000000     0.000000
    3     1.000000   120.000000    -0.577350    -0.577350    -0.577350     0.000000     0.000000     0.000000
    4    -1.000000   120.000000    -0.577350    -0.577350    -0.577350     0.000000     0.000000     0.000000
    5     1.000000   120.000000     0.577350     0.577350     0.577350     0.000000     0.000000     0.000000
    6    -1.000000   120.000000     0.577350     0.577350     0.577350     0.000000     0.000000     0.000000
    7     1.000000    90.000000     0.000000     0.000000    -1.000000     0.000000     0.000000     0.000000
    8    -1.000000    90.000000     0.000000     0.000000    -1.000000     0.000000     0.000000     0.000000
    9     1.000000   180.000000     0.000000     0.707107     0.707107     0.000000     0.000000     0.000000
   10    -1.000000   180.000000     0.000000     0.707107     0.707107     0.000000     0.000000     0.000000
   11     1.000000    90.000000     0.000000     1.000000     0.000000     0.000000     0.000000     0.000000
   12    -1.000000    90.000000     0.000000     1.000000     0.000000     0.000000     0.000000     0.000000
   13     1.000000   179.999999     0.000000     0.000000     1.000000     0.000000     0.000000     0.000000
   14    -1.000000   179.999999     0.000000     0.000000     1.000000     0.000000     0.000000     0.000000
   15     1.000000   120.000000    -0.577350     0.577350     0.577350     0.000000     0.000000     0.000000
   16    -1.000000   120.000000    -0.577350     0.577350     0.577350     0.000000     0.000000     0.000000
   17     1.000000   120.000000    -0.577350     0.577350    -0.577350     0.000000     0.000000     0.000000
   18    -1.000000   120.000000    -0.577350     0.577350    -0.577350     0.000000     0.000000     0.000000
   19     1.000000    90.000000     0.000000     0.000000     1.000000     0.000000     0.000000     0.000000
   20    -1.000000    90.000000     0.000000     0.000000     1.000000     0.000000     0.000000     0.000000
   21     1.000000    90.000000    -1.000000     0.000000     0.000000     0.000000     0.000000     0.000000
   22    -1.000000    90.000000    -1.000000     0.000000     0.000000     0.000000     0.000000     0.000000
   23     1.000000   180.000000     0.707107     0.000000     0.707107     0.000000     0.000000     0.000000
   24    -1.000000   180.000000     0.707107     0.000000     0.707107     0.000000     0.000000     0.000000
   25     1.000000   120.000000     0.577350    -0.577350     0.577350     0.000000     0.000000     0.000000
   26    -1.000000   120.000000     0.577350    -0.577350     0.577350     0.000000     0.000000     0.000000
   27     1.000000   120.000000    -0.577350    -0.577350     0.577350     0.000000     0.000000     0.000000
   28    -1.000000   120.000000    -0.577350    -0.577350     0.577350     0.000000     0.000000     0.000000
   29     1.000000   180.000000     1.000000     0.000000     0.000000     0.000000     0.000000     0.000000
   30    -1.000000   180.000000     1.000000     0.000000     0.000000     0.000000     0.000000     0.000000
   31     1.000000    90.000000     0.000000    -1.000000     0.000000     0.000000     0.000000     0.000000
   32    -1.000000    90.000000     0.000000    -1.000000     0.000000     0.000000     0.000000     0.000000
   33     1.000000   180.000000     0.707107     0.707107     0.000000     0.000000     0.000000     0.000000
   34    -1.000000   180.000000     0.707107     0.707107     0.000000     0.000000     0.000000     0.000000
   35     1.000000    90.000000     1.000000     0.000000     0.000000     0.000000     0.000000     0.000000
   36    -1.000000    90.000000     1.000000     0.000000     0.000000     0.000000     0.000000     0.000000
   37     1.000000   120.000000     0.577350    -0.577350    -0.577350     0.000000     0.000000     0.000000
   38    -1.000000   120.000000     0.577350    -0.577350    -0.577350     0.000000     0.000000     0.000000
   39     1.000000   180.000000     0.000000     1.000000     0.000000     0.000000     0.000000     0.000000
   40    -1.000000   180.000000     0.000000     1.000000     0.000000     0.000000     0.000000     0.000000
   41     1.000000   120.000000     0.577350     0.577350    -0.577350     0.000000     0.000000     0.000000
   42    -1.000000   120.000000     0.577350     0.577350    -0.577350     0.000000     0.000000     0.000000
   43     1.000000   180.000000     0.000000    -0.707107     0.707107     0.000000     0.000000     0.000000
   44    -1.000000   180.000000     0.000000    -0.707107     0.707107     0.000000     0.000000     0.000000
   45     1.000000   180.000000     0.707107    -0.707107     0.000000     0.000000     0.000000     0.000000
   46    -1.000000   180.000000     0.707107    -0.707107     0.000000     0.000000     0.000000     0.000000
   47     1.000000   180.000000     0.707107     0.000000    -0.707107     0.000000     0.000000     0.000000
   48    -1.000000   180.000000     0.707107     0.000000    -0.707107     0.000000     0.000000     0.000000

 Subroutine IBZKPT returns following result:

 Found     35 irreducible k-points:

 Following reciprocal coordinates:
            Coordinates               Weight
  0.000000  0.000000  0.000000      1.000000
  0.111111  0.000000  0.000000      6.000000
  0.222222  0.000000  0.000000      6.000000
  0.333333  0.000000  0.000000      6.000000
  0.444444  0.000000  0.000000      6.000000
  0.111111  0.111111  0.000000     12.000000
  0.222222  0.111111  0.000000     24.000000
  0.333333  0.111111  0.000000     24.000000
  0.444444  0.111111  0.000000     24.000000
  0.222222  0.222222  0.000000     12.000000
  0.333333  0.222222  0.000000     24.000000
  0.444444  0.222222  0.000000     24.000000
  0.333333  0.333333  0.000000     12.000000
  0.444444  0.333333  0.000000     24.000000
  0.444444  0.444444  0.000000     12.000000
  0.111111  0.111111  0.111111      8.000000
  0.222222  0.111111  0.111111     24.000000
  0.333333  0.111111  0.111111     24.000000
  0.444444  0.111111  0.111111     24.000000
  0.222222  0.222222  0.111111     24.000000
  0.333333  0.222222  0.111111     48.000000
  0.444444  0.222222  0.111111     48.000000
  0.333333  0.333333  0.111111     24.000000
  0.444444  0.333333  0.111111     48.000000
  0.444444  0.444444  0.111111     24.000000
  0.222222  0.222222  0.222222      8.000000
  0.333333  0.222222  0.222222     24.000000
  0.444444  0.222222  0.222222     24.000000
  0.333333  0.333333  0.222222     24.000000
  0.444444  0.333333  0.222222     48.000000
  0.444444  0.444444  0.222222     24.000000
  0.333333  0.333333  0.333333      8.000000
  0.444444  0.333333  0.333333     24.000000
  0.444444  0.444444  0.333333     24.000000
  0.444444  0.444444  0.444444      8.000000

 Following cartesian coordinates:
            Coordinates               Weight
  0.000000  0.000000  0.000000      1.000000
  0.027435  0.000000  0.000000      6.000000
  0.054870  0.000000  0.000000      6.000000
  0.082305  0.000000  0.000000      6.000000
  0.109739  0.000000  0.000000      6.000000
  0.027435  0.027435  0.000000     12.000000
  0.054870  0.027435  0.000000     24.000000
  0.082305  0.027435  0.000000     24.000000
  0.109739  0.027435  0.000000     24.000000
  0.054870  0.054870  0.000000     12.000000
  0.082305  0.054870  0.000000     24.000000
  0.109739  0.054870  0.000000     24.000000
  0.082305  0.082305  0.000000     12.000000
  0.109739  0.082305  0.000000     24.000000
  0.109739  0.109739  0.000000     12.000000
  0.027435  0.027435  0.027435      8.000000
  0.054870  0.027435  0.027435     24.000000
  0.082305  0.027435  0.027435     24.000000
  0.109739  0.027435  0.027435     24.000000
  0.054870  0.054870  0.027435     24.000000
  0.082305  0.054870  0.027435     48.000000
  0.109739  0.054870  0.027435     48.000000
  0.082305  0.082305  0.027435     24.000000
  0.109739  0.082305  0.027435     48.000000
  0.109739  0.109739  0.027435     24.000000
  0.054870  0.054870  0.054870      8.000000
  0.082305  0.054870  0.054870     24.000000
  0.109739  0.054870  0.054870     24.000000
  0.082305  0.082305  0.054870     24.000000
  0.109739  0.082305  0.054870     48.000000
  0.109739  0.109739  0.054870     24.000000
  0.082305  0.082305  0.082305      8.000000
  0.109739  0.082305  0.082305     24.000000
  0.109739  0.109739  0.082305     24.000000
  0.109739  0.109739  0.109739      8.000000

 writing wavefunctions